0111000000000000
0111111111000000
0000111111100000
0000000111100000
0000000111100000
0000000001110000
0000000001110000
0000000001110000
0000000001110000
0000000001110000
0000000001110000
0000000011100000
0000000111000000
0000001110000000
0000111000000000
0000110000000000